NAME : ftv33.tour
COMMENT : Optimum tour for ftv33.tsp (Length 1286)
TYPE : TOUR
DIMENSION : 34
TOUR_SECTION  
9
11
10
33
8
5
7
6
31
34
3
4
1
14
13
15
16
17
2
26
25
24
27
28
29
30
23
21
22
32
19
20
18
12
-1
EOF
